c array.sh: path:     /data/qbf/qbf20/PCNF/biu.mv.xl_ao.bb-b003-p020-IPF03-c03.blif-biu.inv.prop.bb-bmc.conf02.01X-QBF.BB1-01X.BB2-Zi.BB3-01X.with-IOC.unfold-009.qdimacs
c array.sh: name:     biu.mv.xl_ao.bb-b003-p020-IPF03-c03.blif-biu.inv.prop.bb-bmc.conf02.01X-QBF.BB1-01X.BB2-Zi.BB3-01X.with-IOC.unfold-009
c array.sh: task:     15
c array.sh: host:     c3n08
c array.sh: uname:    Linux c3n08 4.15.0-135-generic #139-Ubuntu SMP Mon Jan 18 17:38:24 UTC 2021 x86_64 x86_64 x86_64 GNU/Linux
c array.sh: start:    Thu Feb 18 09:53:05 CET 2021
c array.sh: noturbo:  1
c array.sh: governor: 32 performance
c array.sh: tmp:      1%
c array.sh: unzipped: /tmp/local-unzipped-18838260-15-biu.mv.xl_ao.bb-b003-p020-IPF03-c03.blif-biu.inv.prop.bb-bmc.conf02.01X-QBF.BB1-01X.BB2-Zi.BB3-01X.with-IOC.unfold-009.cnf
*** qbfcert: using tmp directory:
*** qbfcert:   /tmp
trace-size: 1990256219
solving-res 20
proof-size: 1566809922
cert-size: 164832
cert-header: aag 30776 27158 0 136 220
merged-header: p cnf 237698 529349
merged-size: 9711258
c ---- [ banner ] ------------------------------------------------------------
c
c KISSAT SAT Solver
c Copyright (c) 2019-2020 Armin Biere JKU Linz
c 
c Version 1.0.3 59813addcacc4d6fb880ebdd63685600475aa940
c gcc (Ubuntu 7.5.0-3ubuntu1~18.04) 7.5.0 -W -Wall -O3 -DNEMBEDDED -DNDEBUG -DNMETRICS -DNSTATISTICS
c Sun Feb 14 23:58:54 CET 2021 Linux cluster3 4.15.0-135-generic x86_64
c
c ---- [ parsing ] -----------------------------------------------------------
c
c opened and reading DIMACS file:
c 
c   /tmp/qbfcert_merged_cnf14071.cnf
c 
c parsed 'p cnf 237698 529349' header
c closing input after reading 9711258 bytes (9 MB)
c finished parsing after 0.16 seconds
c
c ---- [ solving ] -----------------------------------------------------------
c
c  seconds reductions redundant irredundant
c         MB   restarts    trail       variables
c          level  conflicts   glue          remaining
c
c *  0.16 31 0  0  0   0   0 0% 0 529347 32045 13%
c {  0.16 31 0  0  0   0   0 0% 0 529347 32045 13%
c i  0.16 31 2  0  0   1   0 0% 0 529347 32044 13%
c i  0.16 31 2  0  1   2   0 0% 0 529347 32043 13%
c i  0.16 31 3  0  2   3   0 1% 0 529347 32042 13%
c i  0.17 31 4  0  3   4   0 1% 0 529347 32041 13%
c i  0.17 31 4  0  4   5   0 1% 0 529347 32040 13%
c i  0.17 31 5  0  5   6   0 1% 0 529347 32039 13%
c i  0.17 31 6  0  6   7   0 1% 0 529347 32038 13%
c i  0.17 31 6  0  7   8   0 1% 0 529347 32037 13%
c i  0.17 31 7  0  8   9   0 1% 0 529347 32036 13%
c i  0.17 31 7  0  9  10   0 1% 0 529347 32035 13%
c i  0.17 31 8  0 10  11   0 1% 0 529347 32034 13%
c i  0.17 31 8  0 11  12   0 2% 0 529347 32033 13%
c i  0.17 31 9  0 12  13   0 2% 0 529347 32032 13%
c i  0.17 31 10  0 13  14   0 2% 0 529347 32031 13%
c i  0.17 31 11  0 14  15   0 2% 0 529347 32030 13%
c i  0.17 31 11  0 15  16   0 2% 0 529347 32029 13%
c i  0.17 31 11  0 16  17   0 2% 0 529347 32028 13%
c i  0.17 31 12  0 17  18   0 2% 0 529347 32027 13%
c
c  seconds  reductions redundant irredundant
c         MB    restarts    trail       variables
c          level   conflicts   glue          remaining
c
c i  0.17 31 12  0 18  19   0 2% 0 529347 32026 13%
c i  0.17 31 13  0 19  20   0 3% 0 529347 32025 13%
c i  0.18 31 14  0 20  21   0 3% 0 529347 32024 13%
c i  0.18 31 14  0 21  22   0 3% 0 529347 32023 13%
c i  0.18 31 15  0 22  23   0 3% 0 529347 32022 13%
c i  0.18 31 15  0 23  24   0 3% 0 529347 32021 13%
c i  0.18 31 16  0 24  25   0 3% 0 529347 32020 13%
c i  0.18 31 17  0 25  26   0 3% 0 529347 32019 13%
c i  0.18 31 17  0 26  27   0 4% 0 529347 32018 13%
c i  0.18 31 18  0 27  28   0 4% 0 529347 32017 13%
c i  0.18 31 19  0 28  29   0 4% 0 529347 32016 13%
c i  0.18 31 20  0 29  30   0 4% 0 529347 32015 13%
c i  0.18 31 20  0 30  31   0 4% 0 529347 32014 13%
c i  0.18 31 21  0 31  32   0 4% 0 529347 32013 13%
c i  0.18 31 21  0 32  33   0 4% 0 529347 32012 13%
c i  0.18 31 22  0 33  34   0 4% 0 529347 32011 13%
c i  0.19 31 22  0 34  35   0 5% 0 529347 32010 13%
c i  0.19 31 23  0 35  36   0 5% 0 529347 32009 13%
c i  0.19 31 23  0 36  37   0 5% 0 529347 32008 13%
c i  0.19 31 24  0 37  38   0 5% 0 529347 32007 13%
c
c  seconds  reductions redundant irredundant
c         MB    restarts    trail       variables
c          level   conflicts   glue          remaining
c
c i  0.19 31 24  0 38  39   0 5% 0 529347 32006 13%
c i  0.19 31 25  0 39  40   0 5% 0 529347 32005 13%
c i  0.19 31 25  0 40  41   0 5% 0 529347 32004 13%
c i  0.19 31 26  0 41  42   0 5% 0 529347 32003 13%
c i  0.19 31 27  0 42  43   0 6% 0 529347 32002 13%
c i  0.19 31 27  0 43  44   0 6% 0 529347 32001 13%
c i  0.19 31 28  0 44  45   0 6% 0 529347 32000 13%
c i  0.19 31 28  0 45  46   0 6% 0 529347 31999 13%
c i  0.19 31 29  0 46  47   0 6% 0 529347 31998 13%
c i  0.19 31 30  0 47  48   0 6% 0 529347 31997 13%
c i  0.20 31 30  0 48  49   0 6% 0 529347 31996 13%
c i  0.20 31 31  0 49  50   0 7% 0 529347 31995 13%
c i  0.20 31 32  0 50  51   0 7% 0 529347 31994 13%
c i  0.20 31 32  0 51  52   0 7% 0 529347 31993 13%
c i  0.20 31 33  0 52  53   0 7% 0 529347 31992 13%
c i  0.20 31 34  0 53  54   0 7% 0 529347 31991 13%
c i  0.20 31 35  0 54  55   0 7% 0 529347 31990 13%
c i  0.20 31 35  0 55  56   0 8% 0 529347 31989 13%
c i  0.20 31 36  0 56  57   0 8% 0 529347 31988 13%
c i  0.20 31 37  0 57  58   0 8% 0 529347 31987 13%
c
c  seconds  reductions redundant irredundant
c         MB    restarts    trail       variables
c          level   conflicts   glue          remaining
c
c i  0.20 31 38  0 58  59   0 8% 0 529347 31986 13%
c i  0.20 31 38  0 59  60   0 8% 0 529347 31985 13%
c i  0.21 31 39  0 60  61   0 8% 0 529347 31984 13%
c i  0.21 31 40  0 61  62   0 9% 0 529347 31983 13%
c i  0.21 31 41  0 62  63   0 9% 0 529347 31982 13%
c i  0.21 31 41  0 63  64   0 9% 0 529347 31981 13%
c i  0.21 31 42  0 64  65   0 9% 0 529347 31980 13%
c i  0.21 31 42  0 65  66   0 9% 0 529347 31979 13%
c i  0.21 31 43  0 66  67   0 9% 0 529347 31978 13%
c i  0.21 31 43  0 67  68   0 9% 0 529347 31977 13%
c i  0.21 31 43  0 68  69   0 10% 0 529347 31976 13%
c i  0.21 31 44  0 69  70   0 10% 0 529347 31975 13%
c i  0.21 31 44  0 70  71   0 10% 0 529347 31974 13%
c i  0.22 31 45  0 71  72   0 10% 0 529347 31973 13%
c i  0.22 31 45  0 72  73   0 10% 0 529347 31972 13%
c i  0.22 31 46  0 73  74   0 10% 0 529347 31971 13%
c i  0.22 31 46  0 74  75   0 10% 0 529347 31970 13%
c i  0.22 31 47  0 75  76   0 10% 0 529347 31969 13%
c i  0.22 31 47  0 76  77   0 11% 0 529347 31968 13%
c i  0.22 31 48  0 77  78   0 11% 0 529347 31967 13%
c
c  seconds  reductions redundant irredundant
c         MB    restarts     trail       variables
c          level   conflicts    glue          remaining
c
c i  0.22 31 48  0 78  79   0 11% 0 529347 31966 13%
c i  0.22 31 49  0 79  80   0 11% 0 529347 31965 13%
c i  0.22 31 50  0 80  81   0 11% 0 529347 31964 13%
c i  0.22 31 50  0 81  82   0 11% 0 529347 31963 13%
c i  0.23 31 51  0 82  83   0 11% 0 529347 31962 13%
c i  0.23 31 51  0 83  84   0 12% 0 529347 31961 13%
c i  0.23 31 52  0 84  85   0 12% 0 529347 31960 13%
c i  0.23 31 52  0 85  86   0 12% 0 529347 31959 13%
c i  0.23 31 53  0 86  87   0 12% 0 529347 31958 13%
c i  0.23 31 54  0 87  88   0 12% 0 529347 31957 13%
c i  0.23 31 54  0 88  89   0 12% 0 529347 31956 13%
c i  0.23 31 55  0 89  90   0 13% 0 529347 31955 13%
c i  0.23 31 55  0 90  91   0 13% 0 529347 31954 13%
c i  0.24 31 56  0 90  92   0 13% 0 529347 31953 13%
c i  0.24 31 57  0 91  93   0 13% 0 529347 31952 13%
c i  0.24 31 57  0 91  94   0 13% 0 529347 31951 13%
c i  0.24 31 58  0 92  95   0 13% 0 529347 31950 13%
c i  0.24 31 59  0 92  96   0 14% 0 529347 31949 13%
c i  0.24 31 59  0 93  97   0 14% 0 529347 31948 13%
c i  0.24 31 60  0 93  98   0 14% 0 529347 31947 13%
c
c  seconds  reductions redundant irredundant
c         MB    restarts     trail       variables
c          level   conflicts    glue          remaining
c
c i  0.24 31 61  0 94  99   0 14% 0 529347 31946 13%
c i  0.24 31 61  0 94 100   0 14% 0 529347 31945 13%
c i  0.24 31 62  0 95 101   0 15% 0 529347 31944 13%
c i  0.25 31 63  0 95 102   0 15% 0 529347 31943 13%
c i  0.25 31 63  0 96 103   0 15% 0 529347 31942 13%
c i  0.25 31 64  0 96 104   0 15% 0 529347 31941 13%
c i  0.25 31 65  0 97 105   0 15% 0 529347 31940 13%
c i  0.25 31 65  0 97 106   0 16% 0 529347 31939 13%
c i  0.25 31 66  0 98 107   0 16% 0 529347 31938 13%
c i  0.25 31 67  0 98 108   0 16% 0 529347 31937 13%
c i  0.25 31 68  0 99 109   0 16% 0 529347 31936 13%
c i  0.25 31 68  0 99 110   0 16% 0 529347 31935 13%
c i  0.25 31 69  0 100 111   0 17% 0 529347 31934 13%
c i  0.25 31 70  0 100 112   0 17% 0 529347 31933 13%
c i  0.26 31 71  0 101 113   0 17% 0 529347 31932 13%
c i  0.26 31 71  0 101 114   0 17% 0 529347 31931 13%
c i  0.26 32 72  0 102 115   0 17% 0 529347 31930 13%
c i  0.26 32 73  0 102 116   0 18% 0 529347 31929 13%
c i  0.26 32 74  0 103 117   0 18% 0 529347 31928 13%
c i  0.26 32 74  0 103 118   0 18% 0 529347 31927 13%
c
c  seconds  reductions  redundant irredundant
c         MB    restarts      trail       variables
c          level    conflicts    glue          remaining
c
c i  0.26 32 75  0 104 119   0 18% 0 529347 31926 13%
c i  0.26 32 76  0 104 120   0 19% 0 529347 31925 13%
c i  0.26 32 77  0 105 121   0 19% 0 529347 31924 13%
c i  0.26 32 77  0 105 122   0 19% 0 529347 31923 13%
c i  0.26 32 78  0 106 123   0 19% 0 529347 31922 13%
c i  0.26 32 79  0 106 124   0 20% 0 529347 31921 13%
c i  0.27 32 80  0 107 125   0 20% 0 529347 31920 13%
c i  0.27 32 81  0 107 126   0 20% 0 529347 31919 13%
c i  0.27 32 81  0 108 127   0 20% 0 529347 31918 13%
c i  0.27 32 82  0 108 128   0 20% 0 529347 31917 13%
c i  0.27 32 82  0 109 129   0 21% 0 529347 31916 13%
c i  0.27 32 83  0 109 130   0 21% 0 529347 31915 13%
c i  0.27 32 83  0 110 131   0 21% 0 529347 31914 13%
c i  0.27 32 84  0 110 132   0 21% 0 529347 31913 13%
c i  0.27 32 84  0 111 133   0 21% 0 529347 31912 13%
c i  0.27 32 84  0 111 134   0 21% 0 529347 31911 13%
c i  0.28 32 85  0 112 135   0 21% 0 529347 31910 13%
c i  0.28 32 85  0 112 136   0 21% 0 529347 31909 13%
c i  0.28 32 86  0 113 137   0 22% 0 529347 31908 13%
c i  0.28 32 86  0 113 138   0 22% 0 529347 31907 13%
c
c  seconds  reductions  redundant irredundant
c         MB    restarts      trail       variables
c          level    conflicts    glue          remaining
c
c i  0.28 32 87  0 114 139   0 22% 0 529347 31906 13%
c i  0.28 32 87  0 114 140   0 22% 0 529347 31905 13%
c i  0.28 32 88  0 115 141   0 22% 0 529347 31904 13%
c i  0.28 32 88  0 115 142   0 22% 0 529347 31903 13%
c i  0.28 32 88  0 116 143   0 23% 0 529347 31902 13%
c i  0.28 32 89  0 116 144   0 23% 0 529347 31901 13%
c i  0.29 32 89  0 117 145   0 23% 0 529347 31900 13%
c i  0.29 32 90  0 117 146   0 23% 0 529347 31899 13%
c i  0.29 32 90  0 118 147   0 23% 0 529347 31898 13%
c i  0.29 32 91  0 118 148   0 23% 0 529347 31897 13%
c i  0.29 32 91  0 119 149   0 23% 0 529347 31896 13%
c i  0.29 32 92  0 119 150   0 24% 0 529347 31895 13%
c i  0.29 32 92  0 120 151   0 24% 0 529347 31894 13%
c i  0.29 32 93  0 120 152   0 24% 0 529347 31893 13%
c i  0.29 32 93  0 121 153   0 24% 0 529347 31892 13%
c i  0.29 32 94  0 121 154   0 24% 0 529347 31891 13%
c i  0.30 32 94  0 122 155   0 25% 0 529347 31890 13%
c i  0.30 32 95  0 122 156   0 25% 0 529347 31889 13%
c i  0.30 32 96  0 123 157   0 25% 0 529347 31888 13%
c i  0.30 32 96  0 123 158   0 25% 0 529347 31887 13%
c
c  seconds  reductions  redundant irredundant
c         MB    restarts      trail       variables
c          level    conflicts    glue          remaining
c
c i  0.30 32 97  0 124 159   0 25% 0 529347 31886 13%
c i  0.30 32 97  0 124 160   0 25% 0 529347 31885 13%
c i  0.30 32 98  0 125 161   0 26% 0 529347 31884 13%
c i  0.30 32 98  0 125 162   0 26% 0 529347 31883 13%
c i  0.31 32 99  0 126 163   0 26% 0 529347 31882 13%
c i  0.31 32 99  0 126 164   0 26% 0 529347 31881 13%
c i  0.31 32 100  0 127 165   0 26% 0 529347 31880 13%
c i  0.31 32 100  0 127 166   0 27% 0 529347 31879 13%
c i  0.31 32 101  0 128 167   0 27% 0 529347 31878 13%
c i  0.31 32 102  0 128 168   0 27% 0 529347 31877 13%
c i  0.31 32 102  0 129 169   0 27% 0 529347 31876 13%
c i  0.31 32 103  0 129 170   0 27% 0 529347 31875 13%
c i  0.31 32 103  0 130 171   0 28% 0 529347 31874 13%
c i  0.31 32 104  0 130 172   0 28% 0 529347 31873 13%
c i  0.32 32 105  0 131 173   0 28% 0 529347 31872 13%
c i  0.32 32 105  0 131 174   0 28% 0 529347 31871 13%
c i  0.32 32 106  0 132 175   0 28% 0 529347 31870 13%
c i  0.32 32 106  0 132 176   0 29% 0 529347 31869 13%
c i  0.32 32 107  0 133 177   0 29% 0 529347 31868 13%
c i  0.32 32 108  0 133 178   0 29% 0 529347 31867 13%
c
c  seconds   reductions  redundant irredundant
c         MB     restarts      trail       variables
c           level    conflicts    glue          remaining
c
c i  0.32 32 108  0 134 179   0 29% 0 529347 31866 13%
c i  0.32 32 109  0 134 180   0 29% 0 529347 31865 13%
c i  0.33 32 109  0 135 181   0 30% 0 529347 31864 13%
c i  0.33 32 110  0 135 182   0 30% 0 529347 31863 13%
c i  0.33 32 111  0 136 183   0 30% 0 529347 31862 13%
c i  0.33 32 111  0 136 184   0 30% 0 529347 31861 13%
c i  0.33 32 112  0 137 185   0 31% 0 529347 31860 13%
c i  0.33 32 113  0 137 186   0 31% 0 529347 31859 13%
c i  0.33 32 113  0 138 187   0 31% 0 529347 31858 13%
c i  0.33 32 114  0 138 188   0 31% 0 529347 31857 13%
c i  0.34 32 114  0 139 189   0 32% 0 529347 31856 13%
c i  0.34 32 115  0 139 190   0 32% 0 529347 31855 13%
c i  0.34 32 116  0 140 191   0 32% 0 529347 31854 13%
c i  0.34 32 116  0 140 192   0 32% 0 529347 31853 13%
c i  0.34 32 117  0 141 193   0 33% 0 529347 31852 13%
c i  0.34 32 118  0 141 194   0 33% 0 529347 31851 13%
c i  0.34 32 118  0 142 195   0 33% 0 529347 31850 13%
c i  0.34 32 119  0 142 196   0 33% 0 529347 31849 13%
c i  0.35 32 120  0 143 197   0 33% 0 529347 31848 13%
c i  0.35 32 120  0 143 198   0 34% 0 529347 31847 13%
c
c  seconds   reductions  redundant irredundant
c         MB     restarts      trail       variables
c           level    conflicts    glue          remaining
c
c i  0.35 32 121  0 144 199   0 34% 0 529347 31846 13%
c i  0.35 32 122  0 144 200   0 34% 0 529347 31845 13%
c i  0.35 32 122  0 145 201   0 35% 0 529347 31844 13%
c i  0.35 32 123  0 145 202   0 35% 0 529347 31843 13%
c i  0.35 32 124  0 146 203   0 35% 0 529347 31842 13%
c i  0.35 32 124  0 146 204   0 35% 0 529347 31841 13%
c i  0.36 32 125  0 147 205   0 36% 0 529347 31840 13%
c i  0.36 32 126  0 147 206   0 36% 0 529347 31839 13%
c i  0.36 32 127  0 148 207   0 36% 0 529347 31838 13%
c i  0.36 32 127  0 148 208   0 36% 0 529347 31837 13%
c i  0.36 32 128  0 149 209   0 37% 0 529347 31836 13%
c i  0.36 32 129  0 149 210   0 37% 0 529347 31835 13%
c i  0.37 32 129  0 150 211   0 37% 0 529347 31834 13%
c i  0.37 32 130  0 150 212   0 37% 0 529347 31833 13%
c i  0.37 32 131  0 151 213   0 38% 0 529347 31832 13%
c i  0.37 32 131  0 151 214   0 38% 0 529347 31831 13%
c i  0.37 32 132  0 152 215   0 38% 0 529347 31830 13%
c i  0.37 32 133  0 152 216   0 39% 0 529347 31829 13%
c i  0.37 32 134  0 153 217   0 39% 0 529347 31828 13%
c i  0.37 32 134  0 153 218   0 39% 0 529347 31827 13%
c
c  seconds   reductions  redundant irredundant
c         MB     restarts      trail       variables
c           level    conflicts    glue          remaining
c
c i  0.38 32 135  0 154 219   0 39% 0 529347 31826 13%
c i  0.38 32 136  0 154 220   0 40% 0 529347 31825 13%
c i  0.38 32 137  0 155 221   0 40% 0 529347 31824 13%
c i  0.38 32 137  0 155 222   0 40% 0 529347 31823 13%
c i  0.38 32 138  0 156 223   0 41% 0 529347 31822 13%
c i  0.38 32 139  0 156 224   0 41% 0 529347 31821 13%
c i  0.39 32 140  0 157 225   0 41% 0 529347 31820 13%
c i  0.39 32 140  0 157 226   0 42% 0 529347 31819 13%
c i  0.39 32 141  0 158 227   0 42% 0 529347 31818 13%
c i  0.39 32 142  0 158 228   0 43% 0 529347 31817 13%
c i  0.39 32 143  0 159 229   0 43% 0 529347 31816 13%
c i  0.39 32 144  0 159 230   0 43% 0 529347 31815 13%
c i  0.40 32 144  0 160 231   0 44% 0 529347 31814 13%
c i  0.40 32 145  0 160 232   0 44% 0 529347 31813 13%
c i  0.40 32 146  0 161 233   0 45% 0 529347 31812 13%
c i  0.40 32 147  0 161 234   0 45% 0 529347 31811 13%
c i  0.40 32 148  0 162 235   0 45% 0 529347 31810 13%
c i  0.40 32 148  0 162 236   0 46% 0 529347 31809 13%
c i  0.41 32 149  0 163 237   0 46% 0 529347 31808 13%
c i  0.41 32 150  0 163 238   0 46% 0 529347 31807 13%
c
c  seconds   reductions  redundant irredundant
c         MB     restarts      trail       variables
c           level    conflicts    glue          remaining
c
c i  0.41 32 151  0 164 239   0 47% 0 529347 31806 13%
c i  0.41 32 152  0 164 240   0 47% 0 529347 31805 13%
c i  0.41 32 153  0 165 241   0 48% 0 529347 31804 13%
c i  0.41 32 153  0 165 242   0 48% 0 529347 31803 13%
c i  0.42 32 154  0 166 243   0 48% 0 529347 31802 13%
c i  0.42 32 155  0 166 244   0 49% 0 529347 31801 13%
c i  0.42 32 156  0 167 245   0 49% 0 529347 31800 13%
c i  0.42 32 157  0 167 246   0 49% 0 529347 31799 13%
c i  0.42 32 158  0 168 247   0 50% 0 529347 31798 13%
c i  0.42 32 158  0 168 248   0 50% 0 529347 31797 13%
c i  0.43 32 159  0 169 249   0 51% 0 529347 31796 13%
c i  0.43 32 160  0 169 250   0 51% 0 529347 31795 13%
c i  0.43 32 161  0 170 251   0 51% 0 529347 31794 13%
c i  0.43 32 162  0 170 252   0 52% 0 529347 31793 13%
c i  0.43 32 163  0 171 253   0 52% 0 529347 31792 13%
c i  0.43 32 163  0 171 254   0 52% 0 529347 31791 13%
c i  0.44 32 164  0 172 255   0 53% 0 529347 31790 13%
c i  0.44 32 165  0 172 256   0 53% 0 529347 31789 13%
c i  0.44 32 165  0 173 257   0 53% 0 529347 31788 13%
c i  0.44 32 166  0 173 258   0 53% 0 529347 31787 13%
c
c  seconds   reductions  redundant irredundant
c         MB     restarts      trail       variables
c           level    conflicts    glue          remaining
c
c }  0.44 32 167  0 174 263   3 54% 0 529347 31480 13%
c 0  0.44 32 167  0 174 263   3 54% 0 529347 31480 13%
c
c ---- [ result ] ------------------------------------------------------------
c
s UNSATISFIABLE
c
c ---- [ profiling ] ---------------------------------------------------------
c
c           0.28   63.26 %  search
c           0.28   63.23 %  focused
c           0.16   36.70 %  parse
c           0.00    0.00 %  simplify
c =============================================
c           0.44  100.00 %  total
c
c ---- [ statistics ] --------------------------------------------------------
c
c conflicts:                              263              592.29 per second
c decisions:                            20413               77.62 per conflict
c propagations:                       2114056          4760937    per second
c restarts:                               174                1.51 interval
c
c ---- [ resources ] ---------------------------------------------------------
c
c maximum-resident-set-size:         33755136 bytes         32 MB
c process-time:                             0s               0.44 seconds
c
c ---- [ shutting down ] -----------------------------------------------------
c
c exit 20
*** qbfcert: VALID
c array.sh: end:      Thu Feb 18 09:55:18 CET 2021
